proyfinal/src/viki/013/experimentInOfficeAgust.take6.output/8f8e43d5-5aff-45fc-99ff-45626e7df6c4.als.dat
{'cnf.clauses': '118081',
 'cnf.totvars': '69608',
 'conflict literals': '133',
 'conflicts': '41',
 'decisions': '7982',
 'memused.mb': '15.71',
 'outcome': 'UNSAT',
 'propagations': '27846',
 'restarts': '1',
 'solver.msecs': 28,
 'task.msecs': 99}
