proyfinal/src/viki/013/experimentInOfficeAgust.take6.output/8f8e43d5-5aff-45fc-99ff-45626e7df6c4.als.out
Reading from standard input... Use '--help' for help.
============================[ Problem Statistics ]=============================
|                                                                             |
|  Number of variables:         69608                                         |
|  Number of clauses:          118081                                         |
|  Parse time:                   0.02 s                                       |
|                                                                             |
============================[ Search Statistics ]==============================
| Conflicts |          ORIGINAL         |          LEARNT          | Progress |
|           |    Vars  Clauses Literals |    Limit  Clauses Lit/Cl |          |
===============================================================================
===============================================================================
restarts              : 1
conflicts             : 41             (1448 /sec)
decisions             : 7982           (0.00 % random) (281810 /sec)
propagations          : 27846          (983124 /sec)
conflict literals     : 133            (0.00 % deleted)
Memory used           : 15.71 MB
CPU time              : 0.028324 s

UNSATISFIABLE
